p cnf 418 704
43 44 1 67 68 0
43 44 1 67 -68 0
43 44 1 -67 68 0
43 44 1 -67 -68 0
-43 -44 1 69 70 0
-43 -44 1 69 -70 0
-43 -44 1 -69 70 0
-43 -44 1 -69 -70 0
43 -44 -1 71 72 0
43 -44 -1 71 -72 0
43 -44 -1 -71 72 0
43 -44 -1 -71 -72 0
-43 44 -1 73 74 0
-43 44 -1 73 -74 0
-43 44 -1 -73 74 0
-43 44 -1 -73 -74 0
1 45 2 75 76 0
1 45 2 75 -76 0
1 45 2 -75 76 0
1 45 2 -75 -76 0
-1 -45 2 77 78 0
-1 -45 2 77 -78 0
-1 -45 2 -77 78 0
-1 -45 2 -77 -78 0
1 -45 -2 79 80 0
1 -45 -2 79 -80 0
1 -45 -2 -79 80 0
1 -45 -2 -79 -80 0
-1 45 -2 81 82 0
-1 45 -2 81 -82 0
-1 45 -2 -81 82 0
-1 45 -2 -81 -82 0
2 46 3 83 84 0
2 46 3 83 -84 0
2 46 3 -83 84 0
2 46 3 -83 -84 0
-2 -46 3 85 86 0
-2 -46 3 85 -86 0
-2 -46 3 -85 86 0
-2 -46 3 -85 -86 0
2 -46 -3 87 88 0
2 -46 -3 87 -88 0
2 -46 -3 -87 88 0
2 -46 -3 -87 -88 0
-2 46 -3 89 90 0
-2 46 -3 89 -90 0
-2 46 -3 -89 90 0
-2 46 -3 -89 -90 0
3 47 4 91 92 0
3 47 4 91 -92 0
3 47 4 -91 92 0
3 47 4 -91 -92 0
-3 -47 4 93 94 0
-3 -47 4 93 -94 0
-3 -47 4 -93 94 0
-3 -47 4 -93 -94 0
3 -47 -4 95 96 0
3 -47 -4 95 -96 0
3 -47 -4 -95 96 0
3 -47 -4 -95 -96 0
-3 47 -4 97 98 0
-3 47 -4 97 -98 0
-3 47 -4 -97 98 0
-3 47 -4 -97 -98 0
4 48 5 99 100 0
4 48 5 99 -100 0
4 48 5 -99 100 0
4 48 5 -99 -100 0
-4 -48 5 101 102 0
-4 -48 5 101 -102 0
-4 -48 5 -101 102 0
-4 -48 5 -101 -102 0
4 -48 -5 103 104 0
4 -48 -5 103 -104 0
4 -48 -5 -103 104 0
4 -48 -5 -103 -104 0
-4 48 -5 105 106 0
-4 48 -5 105 -106 0
-4 48 -5 -105 106 0
-4 48 -5 -105 -106 0
5 49 6 107 108 0
5 49 6 107 -108 0
5 49 6 -107 108 0
5 49 6 -107 -108 0
-5 -49 6 109 110 0
-5 -49 6 109 -110 0
-5 -49 6 -109 110 0
-5 -49 6 -109 -110 0
5 -49 -6 111 112 0
5 -49 -6 111 -112 0
5 -49 -6 -111 112 0
5 -49 -6 -111 -112 0
-5 49 -6 113 114 0
-5 49 -6 113 -114 0
-5 49 -6 -113 114 0
-5 49 -6 -113 -114 0
6 50 7 115 116 0
6 50 7 115 -116 0
6 50 7 -115 116 0
6 50 7 -115 -116 0
-6 -50 7 117 118 0
-6 -50 7 117 -118 0
-6 -50 7 -117 118 0
-6 -50 7 -117 -118 0
6 -50 -7 119 120 0
6 -50 -7 119 -120 0
6 -50 -7 -119 120 0
6 -50 -7 -119 -120 0
-6 50 -7 121 122 0
-6 50 -7 121 -122 0
-6 50 -7 -121 122 0
-6 50 -7 -121 -122 0
7 51 8 123 124 0
7 51 8 123 -124 0
7 51 8 -123 124 0
7 51 8 -123 -124 0
-7 -51 8 125 126 0
-7 -51 8 125 -126 0
-7 -51 8 -125 126 0
-7 -51 8 -125 -126 0
7 -51 -8 127 128 0
7 -51 -8 127 -128 0
7 -51 -8 -127 128 0
7 -51 -8 -127 -128 0
-7 51 -8 129 130 0
-7 51 -8 129 -130 0
-7 51 -8 -129 130 0
-7 51 -8 -129 -130 0
8 52 9 131 132 0
8 52 9 131 -132 0
8 52 9 -131 132 0
8 52 9 -131 -132 0
-8 -52 9 133 134 0
-8 -52 9 133 -134 0
-8 -52 9 -133 134 0
-8 -52 9 -133 -134 0
8 -52 -9 135 136 0
8 -52 -9 135 -136 0
8 -52 -9 -135 136 0
8 -52 -9 -135 -136 0
-8 52 -9 137 138 0
-8 52 -9 137 -138 0
-8 52 -9 -137 138 0
-8 52 -9 -137 -138 0
9 53 10 139 140 0
9 53 10 139 -140 0
9 53 10 -139 140 0
9 53 10 -139 -140 0
-9 -53 10 141 142 0
-9 -53 10 141 -142 0
-9 -53 10 -141 142 0
-9 -53 10 -141 -142 0
9 -53 -10 143 144 0
9 -53 -10 143 -144 0
9 -53 -10 -143 144 0
9 -53 -10 -143 -144 0
-9 53 -10 145 146 0
-9 53 -10 145 -146 0
-9 53 -10 -145 146 0
-9 53 -10 -145 -146 0
10 54 11 147 148 0
10 54 11 147 -148 0
10 54 11 -147 148 0
10 54 11 -147 -148 0
-10 -54 11 149 150 0
-10 -54 11 149 -150 0
-10 -54 11 -149 150 0
-10 -54 11 -149 -150 0
10 -54 -11 151 152 0
10 -54 -11 151 -152 0
10 -54 -11 -151 152 0
10 -54 -11 -151 -152 0
-10 54 -11 153 154 0
-10 54 -11 153 -154 0
-10 54 -11 -153 154 0
-10 54 -11 -153 -154 0
11 55 12 155 156 0
11 55 12 155 -156 0
11 55 12 -155 156 0
11 55 12 -155 -156 0
-11 -55 12 157 158 0
-11 -55 12 157 -158 0
-11 -55 12 -157 158 0
-11 -55 12 -157 -158 0
11 -55 -12 159 160 0
11 -55 -12 159 -160 0
11 -55 -12 -159 160 0
11 -55 -12 -159 -160 0
-11 55 -12 161 162 0
-11 55 -12 161 -162 0
-11 55 -12 -161 162 0
-11 55 -12 -161 -162 0
12 56 13 163 164 0
12 56 13 163 -164 0
12 56 13 -163 164 0
12 56 13 -163 -164 0
-12 -56 13 165 166 0
-12 -56 13 165 -166 0
-12 -56 13 -165 166 0
-12 -56 13 -165 -166 0
12 -56 -13 167 168 0
12 -56 -13 167 -168 0
12 -56 -13 -167 168 0
12 -56 -13 -167 -168 0
-12 56 -13 169 170 0
-12 56 -13 169 -170 0
-12 56 -13 -169 170 0
-12 56 -13 -169 -170 0
13 57 14 171 172 0
13 57 14 171 -172 0
13 57 14 -171 172 0
13 57 14 -171 -172 0
-13 -57 14 173 174 0
-13 -57 14 173 -174 0
-13 -57 14 -173 174 0
-13 -57 14 -173 -174 0
13 -57 -14 175 176 0
13 -57 -14 175 -176 0
13 -57 -14 -175 176 0
13 -57 -14 -175 -176 0
-13 57 -14 177 178 0
-13 57 -14 177 -178 0
-13 57 -14 -177 178 0
-13 57 -14 -177 -178 0
14 58 15 179 180 0
14 58 15 179 -180 0
14 58 15 -179 180 0
14 58 15 -179 -180 0
-14 -58 15 181 182 0
-14 -58 15 181 -182 0
-14 -58 15 -181 182 0
-14 -58 15 -181 -182 0
14 -58 -15 183 184 0
14 -58 -15 183 -184 0
14 -58 -15 -183 184 0
14 -58 -15 -183 -184 0
-14 58 -15 185 186 0
-14 58 -15 185 -186 0
-14 58 -15 -185 186 0
-14 58 -15 -185 -186 0
15 59 16 187 188 0
15 59 16 187 -188 0
15 59 16 -187 188 0
15 59 16 -187 -188 0
-15 -59 16 189 190 0
-15 -59 16 189 -190 0
-15 -59 16 -189 190 0
-15 -59 16 -189 -190 0
15 -59 -16 191 192 0
15 -59 -16 191 -192 0
15 -59 -16 -191 192 0
15 -59 -16 -191 -192 0
-15 59 -16 193 194 0
-15 59 -16 193 -194 0
-15 59 -16 -193 194 0
-15 59 -16 -193 -194 0
16 60 17 195 196 0
16 60 17 195 -196 0
16 60 17 -195 196 0
16 60 17 -195 -196 0
-16 -60 17 197 198 0
-16 -60 17 197 -198 0
-16 -60 17 -197 198 0
-16 -60 17 -197 -198 0
16 -60 -17 199 200 0
16 -60 -17 199 -200 0
16 -60 -17 -199 200 0
16 -60 -17 -199 -200 0
-16 60 -17 201 202 0
-16 60 -17 201 -202 0
-16 60 -17 -201 202 0
-16 60 -17 -201 -202 0
17 61 18 203 204 0
17 61 18 203 -204 0
17 61 18 -203 204 0
17 61 18 -203 -204 0
-17 -61 18 205 206 0
-17 -61 18 205 -206 0
-17 -61 18 -205 206 0
-17 -61 18 -205 -206 0
17 -61 -18 207 208 0
17 -61 -18 207 -208 0
17 -61 -18 -207 208 0
17 -61 -18 -207 -208 0
-17 61 -18 209 210 0
-17 61 -18 209 -210 0
-17 61 -18 -209 210 0
-17 61 -18 -209 -210 0
18 62 19 211 212 0
18 62 19 211 -212 0
18 62 19 -211 212 0
18 62 19 -211 -212 0
-18 -62 19 213 214 0
-18 -62 19 213 -214 0
-18 -62 19 -213 214 0
-18 -62 19 -213 -214 0
18 -62 -19 215 216 0
18 -62 -19 215 -216 0
18 -62 -19 -215 216 0
18 -62 -19 -215 -216 0
-18 62 -19 217 218 0
-18 62 -19 217 -218 0
-18 62 -19 -217 218 0
-18 62 -19 -217 -218 0
19 63 20 219 220 0
19 63 20 219 -220 0
19 63 20 -219 220 0
19 63 20 -219 -220 0
-19 -63 20 221 222 0
-19 -63 20 221 -222 0
-19 -63 20 -221 222 0
-19 -63 20 -221 -222 0
19 -63 -20 223 224 0
19 -63 -20 223 -224 0
19 -63 -20 -223 224 0
19 -63 -20 -223 -224 0
-19 63 -20 225 226 0
-19 63 -20 225 -226 0
-19 63 -20 -225 226 0
-19 63 -20 -225 -226 0
20 64 21 227 228 0
20 64 21 227 -228 0
20 64 21 -227 228 0
20 64 21 -227 -228 0
-20 -64 21 229 230 0
-20 -64 21 229 -230 0
-20 -64 21 -229 230 0
-20 -64 21 -229 -230 0
20 -64 -21 231 232 0
20 -64 -21 231 -232 0
20 -64 -21 -231 232 0
20 -64 -21 -231 -232 0
-20 64 -21 233 234 0
-20 64 -21 233 -234 0
-20 64 -21 -233 234 0
-20 64 -21 -233 -234 0
21 65 66 235 236 0
21 65 66 235 -236 0
21 65 66 -235 236 0
21 65 66 -235 -236 0
-21 -65 66 237 238 0
-21 -65 66 237 -238 0
-21 -65 66 -237 238 0
-21 -65 66 -237 -238 0
21 -65 -66 239 240 0
21 -65 -66 239 -240 0
21 -65 -66 -239 240 0
21 -65 -66 -239 -240 0
-21 65 -66 241 242 0
-21 65 -66 241 -242 0
-21 65 -66 -241 242 0
-21 65 -66 -241 -242 0
22 65 66 243 244 0
22 65 66 243 -244 0
22 65 66 -243 244 0
22 65 66 -243 -244 0
-22 -65 66 245 246 0
-22 -65 66 245 -246 0
-22 -65 66 -245 246 0
-22 -65 66 -245 -246 0
22 -65 -66 247 248 0
22 -65 -66 247 -248 0
22 -65 -66 -247 248 0
22 -65 -66 -247 -248 0
-22 65 -66 249 250 0
-22 65 -66 249 -250 0
-22 65 -66 -249 250 0
-22 65 -66 -249 -250 0
23 64 22 251 252 0
23 64 22 251 -252 0
23 64 22 -251 252 0
23 64 22 -251 -252 0
-23 -64 22 253 254 0
-23 -64 22 253 -254 0
-23 -64 22 -253 254 0
-23 -64 22 -253 -254 0
23 -64 -22 255 256 0
23 -64 -22 255 -256 0
23 -64 -22 -255 256 0
23 -64 -22 -255 -256 0
-23 64 -22 257 258 0
-23 64 -22 257 -258 0
-23 64 -22 -257 258 0
-23 64 -22 -257 -258 0
24 63 23 259 260 0
24 63 23 259 -260 0
24 63 23 -259 260 0
24 63 23 -259 -260 0
-24 -63 23 261 262 0
-24 -63 23 261 -262 0
-24 -63 23 -261 262 0
-24 -63 23 -261 -262 0
24 -63 -23 263 264 0
24 -63 -23 263 -264 0
24 -63 -23 -263 264 0
24 -63 -23 -263 -264 0
-24 63 -23 265 266 0
-24 63 -23 265 -266 0
-24 63 -23 -265 266 0
-24 63 -23 -265 -266 0
25 62 24 267 268 0
25 62 24 267 -268 0
25 62 24 -267 268 0
25 62 24 -267 -268 0
-25 -62 24 269 270 0
-25 -62 24 269 -270 0
-25 -62 24 -269 270 0
-25 -62 24 -269 -270 0
25 -62 -24 271 272 0
25 -62 -24 271 -272 0
25 -62 -24 -271 272 0
25 -62 -24 -271 -272 0
-25 62 -24 273 274 0
-25 62 -24 273 -274 0
-25 62 -24 -273 274 0
-25 62 -24 -273 -274 0
26 61 25 275 276 0
26 61 25 275 -276 0
26 61 25 -275 276 0
26 61 25 -275 -276 0
-26 -61 25 277 278 0
-26 -61 25 277 -278 0
-26 -61 25 -277 278 0
-26 -61 25 -277 -278 0
26 -61 -25 279 280 0
26 -61 -25 279 -280 0
26 -61 -25 -279 280 0
26 -61 -25 -279 -280 0
-26 61 -25 281 282 0
-26 61 -25 281 -282 0
-26 61 -25 -281 282 0
-26 61 -25 -281 -282 0
27 60 26 283 284 0
27 60 26 283 -284 0
27 60 26 -283 284 0
27 60 26 -283 -284 0
-27 -60 26 285 286 0
-27 -60 26 285 -286 0
-27 -60 26 -285 286 0
-27 -60 26 -285 -286 0
27 -60 -26 287 288 0
27 -60 -26 287 -288 0
27 -60 -26 -287 288 0
27 -60 -26 -287 -288 0
-27 60 -26 289 290 0
-27 60 -26 289 -290 0
-27 60 -26 -289 290 0
-27 60 -26 -289 -290 0
28 59 27 291 292 0
28 59 27 291 -292 0
28 59 27 -291 292 0
28 59 27 -291 -292 0
-28 -59 27 293 294 0
-28 -59 27 293 -294 0
-28 -59 27 -293 294 0
-28 -59 27 -293 -294 0
28 -59 -27 295 296 0
28 -59 -27 295 -296 0
28 -59 -27 -295 296 0
28 -59 -27 -295 -296 0
-28 59 -27 297 298 0
-28 59 -27 297 -298 0
-28 59 -27 -297 298 0
-28 59 -27 -297 -298 0
29 58 28 299 300 0
29 58 28 299 -300 0
29 58 28 -299 300 0
29 58 28 -299 -300 0
-29 -58 28 301 302 0
-29 -58 28 301 -302 0
-29 -58 28 -301 302 0
-29 -58 28 -301 -302 0
29 -58 -28 303 304 0
29 -58 -28 303 -304 0
29 -58 -28 -303 304 0
29 -58 -28 -303 -304 0
-29 58 -28 305 306 0
-29 58 -28 305 -306 0
-29 58 -28 -305 306 0
-29 58 -28 -305 -306 0
30 57 29 307 308 0
30 57 29 307 -308 0
30 57 29 -307 308 0
30 57 29 -307 -308 0
-30 -57 29 309 310 0
-30 -57 29 309 -310 0
-30 -57 29 -309 310 0
-30 -57 29 -309 -310 0
30 -57 -29 311 312 0
30 -57 -29 311 -312 0
30 -57 -29 -311 312 0
30 -57 -29 -311 -312 0
-30 57 -29 313 314 0
-30 57 -29 313 -314 0
-30 57 -29 -313 314 0
-30 57 -29 -313 -314 0
31 56 30 315 316 0
31 56 30 315 -316 0
31 56 30 -315 316 0
31 56 30 -315 -316 0
-31 -56 30 317 318 0
-31 -56 30 317 -318 0
-31 -56 30 -317 318 0
-31 -56 30 -317 -318 0
31 -56 -30 319 320 0
31 -56 -30 319 -320 0
31 -56 -30 -319 320 0
31 -56 -30 -319 -320 0
-31 56 -30 321 322 0
-31 56 -30 321 -322 0
-31 56 -30 -321 322 0
-31 56 -30 -321 -322 0
32 55 31 323 324 0
32 55 31 323 -324 0
32 55 31 -323 324 0
32 55 31 -323 -324 0
-32 -55 31 325 326 0
-32 -55 31 325 -326 0
-32 -55 31 -325 326 0
-32 -55 31 -325 -326 0
32 -55 -31 327 328 0
32 -55 -31 327 -328 0
32 -55 -31 -327 328 0
32 -55 -31 -327 -328 0
-32 55 -31 329 330 0
-32 55 -31 329 -330 0
-32 55 -31 -329 330 0
-32 55 -31 -329 -330 0
33 54 32 331 332 0
33 54 32 331 -332 0
33 54 32 -331 332 0
33 54 32 -331 -332 0
-33 -54 32 333 334 0
-33 -54 32 333 -334 0
-33 -54 32 -333 334 0
-33 -54 32 -333 -334 0
33 -54 -32 335 336 0
33 -54 -32 335 -336 0
33 -54 -32 -335 336 0
33 -54 -32 -335 -336 0
-33 54 -32 337 338 0
-33 54 -32 337 -338 0
-33 54 -32 -337 338 0
-33 54 -32 -337 -338 0
34 53 33 339 340 0
34 53 33 339 -340 0
34 53 33 -339 340 0
34 53 33 -339 -340 0
-34 -53 33 341 342 0
-34 -53 33 341 -342 0
-34 -53 33 -341 342 0
-34 -53 33 -341 -342 0
34 -53 -33 343 344 0
34 -53 -33 343 -344 0
34 -53 -33 -343 344 0
34 -53 -33 -343 -344 0
-34 53 -33 345 346 0
-34 53 -33 345 -346 0
-34 53 -33 -345 346 0
-34 53 -33 -345 -346 0
35 52 34 347 348 0
35 52 34 347 -348 0
35 52 34 -347 348 0
35 52 34 -347 -348 0
-35 -52 34 349 350 0
-35 -52 34 349 -350 0
-35 -52 34 -349 350 0
-35 -52 34 -349 -350 0
35 -52 -34 351 352 0
35 -52 -34 351 -352 0
35 -52 -34 -351 352 0
35 -52 -34 -351 -352 0
-35 52 -34 353 354 0
-35 52 -34 353 -354 0
-35 52 -34 -353 354 0
-35 52 -34 -353 -354 0
36 51 35 355 356 0
36 51 35 355 -356 0
36 51 35 -355 356 0
36 51 35 -355 -356 0
-36 -51 35 357 358 0
-36 -51 35 357 -358 0
-36 -51 35 -357 358 0
-36 -51 35 -357 -358 0
36 -51 -35 359 360 0
36 -51 -35 359 -360 0
36 -51 -35 -359 360 0
36 -51 -35 -359 -360 0
-36 51 -35 361 362 0
-36 51 -35 361 -362 0
-36 51 -35 -361 362 0
-36 51 -35 -361 -362 0
37 50 36 363 364 0
37 50 36 363 -364 0
37 50 36 -363 364 0
37 50 36 -363 -364 0
-37 -50 36 365 366 0
-37 -50 36 365 -366 0
-37 -50 36 -365 366 0
-37 -50 36 -365 -366 0
37 -50 -36 367 368 0
37 -50 -36 367 -368 0
37 -50 -36 -367 368 0
37 -50 -36 -367 -368 0
-37 50 -36 369 370 0
-37 50 -36 369 -370 0
-37 50 -36 -369 370 0
-37 50 -36 -369 -370 0
38 49 37 371 372 0
38 49 37 371 -372 0
38 49 37 -371 372 0
38 49 37 -371 -372 0
-38 -49 37 373 374 0
-38 -49 37 373 -374 0
-38 -49 37 -373 374 0
-38 -49 37 -373 -374 0
38 -49 -37 375 376 0
38 -49 -37 375 -376 0
38 -49 -37 -375 376 0
38 -49 -37 -375 -376 0
-38 49 -37 377 378 0
-38 49 -37 377 -378 0
-38 49 -37 -377 378 0
-38 49 -37 -377 -378 0
39 48 38 379 380 0
39 48 38 379 -380 0
39 48 38 -379 380 0
39 48 38 -379 -380 0
-39 -48 38 381 382 0
-39 -48 38 381 -382 0
-39 -48 38 -381 382 0
-39 -48 38 -381 -382 0
39 -48 -38 383 384 0
39 -48 -38 383 -384 0
39 -48 -38 -383 384 0
39 -48 -38 -383 -384 0
-39 48 -38 385 386 0
-39 48 -38 385 -386 0
-39 48 -38 -385 386 0
-39 48 -38 -385 -386 0
40 47 39 387 388 0
40 47 39 387 -388 0
40 47 39 -387 388 0
40 47 39 -387 -388 0
-40 -47 39 389 390 0
-40 -47 39 389 -390 0
-40 -47 39 -389 390 0
-40 -47 39 -389 -390 0
40 -47 -39 391 392 0
40 -47 -39 391 -392 0
40 -47 -39 -391 392 0
40 -47 -39 -391 -392 0
-40 47 -39 393 394 0
-40 47 -39 393 -394 0
-40 47 -39 -393 394 0
-40 47 -39 -393 -394 0
41 46 40 395 396 0
41 46 40 395 -396 0
41 46 40 -395 396 0
41 46 40 -395 -396 0
-41 -46 40 397 398 0
-41 -46 40 397 -398 0
-41 -46 40 -397 398 0
-41 -46 40 -397 -398 0
41 -46 -40 399 400 0
41 -46 -40 399 -400 0
41 -46 -40 -399 400 0
41 -46 -40 -399 -400 0
-41 46 -40 401 402 0
-41 46 -40 401 -402 0
-41 46 -40 -401 402 0
-41 46 -40 -401 -402 0
42 45 41 403 404 0
42 45 41 403 -404 0
42 45 41 -403 404 0
42 45 41 -403 -404 0
-42 -45 41 405 406 0
-42 -45 41 405 -406 0
-42 -45 41 -405 406 0
-42 -45 41 -405 -406 0
42 -45 -41 407 408 0
42 -45 -41 407 -408 0
42 -45 -41 -407 408 0
42 -45 -41 -407 -408 0
-42 45 -41 409 410 0
-42 45 -41 409 -410 0
-42 45 -41 -409 410 0
-42 45 -41 -409 -410 0
43 44 -42 411 412 0
43 44 -42 411 -412 0
43 44 -42 -411 412 0
43 44 -42 -411 -412 0
-43 -44 -42 413 414 0
-43 -44 -42 413 -414 0
-43 -44 -42 -413 414 0
-43 -44 -42 -413 -414 0
43 -44 42 415 416 0
43 -44 42 415 -416 0
43 -44 42 -415 416 0
43 -44 42 -415 -416 0
-43 44 42 417 418 0
-43 44 42 417 -418 0
-43 44 42 -417 418 0
-43 44 42 -417 -418 0
